clingo version 5.7.1
Reading from stdin
Solving...
SATISFIABLE

INTERRUPTED  : 1
Models       : 149718680+
Calls        : 1
Time         : 86404.246s (Solving: 86355.61s 1st Model: 0.03s Unsat: 0.00s)
CPU Time     : 86397.876s
